(declare-const x Int)
(declare-const x4 Bool)
(declare-const x384773__fresh Int)
(declare-const x1 Int)
(declare-const x1957__fresh Int)
(declare-const x44 Bool)
(declare-fun var1697 () String)
(declare-fun var () Int)
(declare-fun var1693 () String)
(declare-fun var1699 () String)
(declare-fun var1700 () String)
(declare-fun var444 () String)
(assert x44)
(assert (not (xor (>= x 0) (>= x1 0) (>= x 0) x4 (str.contains (str.++ (str.++ "1cguWC6Kd" (str.replace_re var1697 re.all var444)) "K4") (str.replace_re (str.substr (str.substr (str.++ var444) 0 (* (str.len var1693) 45 x1957__fresh)) var x384773__fresh) re.none (str.++ var1700 (str.substr var1699 0 x384773__fresh)))))))
(push)
(check-sat)
